(set-info :status sat)
(declare-const symbol_140 (_ BitVec 32))
(declare-const symbol_406 (_ BitVec 32))
(declare-const symbol_381 (_ BitVec 32))
(declare-const symbol_71 (_ BitVec 32))
(declare-const symbol_422 (_ BitVec 32))
(declare-const symbol_420 (_ BitVec 32))
(declare-const symbol_393 (_ BitVec 32))
(declare-const symbol_317 (_ BitVec 32))
(declare-const symbol_476 (_ BitVec 32))
(declare-const symbol_466 (_ BitVec 32))
(declare-const symbol_438 (_ BitVec 32))
(declare-const symbol_240 (_ BitVec 32))
(declare-const symbol_472 (_ BitVec 32))
(declare-const symbol_460 (_ BitVec 32))
(declare-const symbol_222 (_ BitVec 32))
(declare-const symbol_25 (_ BitVec 32))
(declare-const symbol_226 (_ BitVec 32))
(declare-const symbol_484 (_ BitVec 32))
(declare-const symbol_298 (_ BitVec 32))
(declare-const symbol_125 (_ BitVec 32))
(declare-const symbol_458 (_ BitVec 32))
(declare-const symbol_454 (_ BitVec 32))
(declare-const symbol_338 (_ BitVec 32))
(declare-const symbol_189 (_ BitVec 32))
(declare-const symbol_73 (_ BitVec 32))
(declare-const symbol_456 (_ BitVec 32))
(declare-const symbol_156 (_ BitVec 32))
(declare-const symbol_401 (_ BitVec 32))
(declare-const symbol_198 (_ BitVec 32))
(declare-const symbol_296 (_ BitVec 32))
(declare-const symbol_193 (_ BitVec 32))
(declare-const symbol_152 (_ BitVec 32))
(declare-const symbol_115 (_ BitVec 32))
(declare-const symbol_432 (_ BitVec 32))
(declare-const symbol_224 (_ BitVec 32))
(declare-const symbol_178 (_ BitVec 32))
(declare-const symbol_272 (_ BitVec 32))
(declare-const symbol_250 (_ BitVec 32))
(declare-const symbol_167 (_ BitVec 32))
(declare-const symbol_131 (_ BitVec 32))
(declare-const symbol_446 (_ BitVec 32))
(declare-const symbol_289 (_ BitVec 32))
(declare-const symbol_491 (_ BitVec 32))
(declare-const symbol_254 (_ BitVec 32))
(declare-const symbol_171 (_ BitVec 32))
(declare-const symbol_478 (_ BitVec 32))
(declare-const symbol_77 (_ BitVec 32))
(declare-const symbol_327 (_ BitVec 32))
(declare-const symbol_284 (_ BitVec 32))
(declare-const symbol_28 (_ BitVec 32))
(declare-const symbol_352 (_ BitVec 32))
(declare-const symbol_158 (_ BitVec 32))
(declare-const symbol_23 (_ BitVec 32))
(declare-const symbol_15 (_ BitVec 32))
(declare-const symbol_323 (_ BitVec 32))
(declare-const symbol_184 (_ BitVec 32))
(declare-const symbol_489 (_ BitVec 32))
(declare-const symbol_348 (_ BitVec 32))
(declare-const symbol_485 (_ BitVec 32))
(declare-const symbol_103 (_ BitVec 32))
(declare-const symbol_329 (_ BitVec 32))
(declare-const symbol_47 (_ BitVec 32))
(declare-const symbol_377 (_ BitVec 32))
(declare-const symbol_375 (_ BitVec 32))
(declare-const symbol_365 (_ BitVec 32))
(declare-const symbol_11 (_ BitVec 32))
(declare-const symbol_448 (_ BitVec 32))
(declare-const symbol_428 (_ BitVec 32))
(declare-const symbol_408 (_ BitVec 32))
(declare-const symbol_311 (_ BitVec 32))
(declare-const symbol_117 (_ BitVec 32))
(declare-const symbol_440 (_ BitVec 32))
(declare-const symbol_385 (_ BitVec 32))
(declare-const symbol_373 (_ BitVec 32))
(declare-const symbol_264 (_ BitVec 32))
(declare-const symbol_185 (_ BitVec 32))
(declare-const symbol_418 (_ BitVec 32))
(declare-const symbol_219 (_ BitVec 32))
(declare-const symbol_176 (_ BitVec 32))
(declare-const symbol_399 (_ BitVec 32))
(declare-const symbol_234 (_ BitVec 32))
(declare-const symbol_79 (_ BitVec 32))
(declare-const symbol_403 (_ BitVec 32))
(declare-const symbol_470 (_ BitVec 32))
(declare-const symbol_228 (_ BitVec 32))
(declare-const symbol_493 (_ BitVec 32))
(declare-const symbol_336 (_ BitVec 32))
(declare-const symbol_358 (_ BitVec 32))
(declare-const symbol_274 (_ BitVec 32))
(declare-const symbol_474 (_ BitVec 32))
(declare-const symbol_244 (_ BitVec 32))
(declare-const symbol_344 (_ BitVec 32))
(declare-const symbol_200 (_ BitVec 32))
(declare-const symbol_40 (_ BitVec 32))
(declare-const symbol_30 (_ BitVec 32))
(declare-const symbol_367 (_ BitVec 32))
(declare-const symbol_300 (_ BitVec 32))
(declare-const symbol_278 (_ BitVec 32))
(declare-const symbol_180 (_ BitVec 32))
(declare-const symbol_21 (_ BitVec 32))
(declare-const symbol_19 (_ BitVec 32))
(declare-const symbol_43 (_ BitVec 32))
(declare-const symbol_2 (_ BitVec 32))
(declare-const symbol_416 (_ BitVec 32))
(declare-const symbol_101 (_ BitVec 32))
(declare-const symbol_350 (_ BitVec 32))
(declare-const symbol_154 (_ BitVec 32))
(declare-const symbol_342 (_ BitVec 32))
(declare-const symbol_340 (_ BitVec 32))
(declare-const symbol_208 (_ BitVec 32))
(declare-const symbol_444 (_ BitVec 32))
(declare-const symbol_242 (_ BitVec 32))
(declare-const symbol_426 (_ BitVec 32))
(declare-const symbol_210 (_ BitVec 32))
(declare-const symbol_369 (_ BitVec 32))
(declare-const symbol_290 (_ BitVec 32))
(declare-const symbol_238 (_ BitVec 32))
(declare-const symbol_119 (_ BitVec 32))
(declare-const symbol_395 (_ BitVec 32))
(declare-const symbol_215 (_ BitVec 32))
(declare-const symbol_70 (_ BitVec 32))
(declare-const symbol_331 (_ BitVec 32))
(declare-const symbol_309 (_ BitVec 32))
(declare-const symbol_187 (_ BitVec 32))
(declare-const symbol_434 (_ BitVec 32))
(declare-const symbol_379 (_ BitVec 32))
(declare-const symbol_90 (_ BitVec 32))
(declare-const symbol_55 (_ BitVec 32))
(declare-const symbol_32 (_ BitVec 32))
(declare-const symbol_462 (_ BitVec 32))
(declare-const symbol_321 (_ BitVec 32))
(declare-const symbol_232 (_ BitVec 32))
(declare-const symbol_68 (_ BitVec 32))
(declare-const symbol_162 (_ BitVec 32))
(declare-const symbol_150 (_ BitVec 32))
(declare-const symbol_361 (_ BitVec 32))
(declare-const symbol_346 (_ BitVec 32))
(declare-const symbol_304 (_ BitVec 32))
(declare-const symbol_260 (_ BitVec 32))
(declare-const symbol_160 (_ BitVec 32))
(declare-const symbol_294 (_ BitVec 32))
(declare-const symbol_144 (_ BitVec 32))
(declare-const symbol_27 (_ BitVec 32))
(declare-const symbol_410 (_ BitVec 32))
(declare-const symbol_383 (_ BitVec 32))
(declare-const symbol_109 (_ BitVec 32))
(declare-const symbol_414 (_ BitVec 32))
(declare-const symbol_252 (_ BitVec 32))
(declare-const symbol_356 (_ BitVec 32))
(declare-const symbol_45 (_ BitVec 32))
(declare-const symbol_354 (_ BitVec 32))
(declare-const symbol_113 (_ BitVec 32))
(declare-const symbol_334 (_ BitVec 32))
(declare-const symbol_319 (_ BitVec 32))
(declare-const symbol_49 (_ BitVec 32))
(declare-const symbol_302 (_ BitVec 32))
(declare-const symbol_182 (_ BitVec 32))
(declare-const symbol_63 (_ BitVec 32))
(declare-const symbol_482 (_ BitVec 32))
(declare-const symbol_480 (_ BitVec 32))
(declare-const symbol_468 (_ BitVec 32))
(declare-const symbol_204 (_ BitVec 32))
(declare-const symbol_85 (_ BitVec 32))
(declare-const symbol_436 (_ BitVec 32))
(declare-const symbol_220 (_ BitVec 32))
(declare-const symbol_4 (_ BitVec 32))
(declare-const symbol_424 (_ BitVec 32))
(declare-const symbol_75 (_ BitVec 32))
(declare-const symbol_135 (_ BitVec 32))
(declare-const symbol_387 (_ BitVec 32))
(declare-const symbol_0 (_ BitVec 32))
(declare-const symbol_487 (_ BitVec 32))
(declare-const symbol_452 (_ BitVec 32))
(declare-const symbol_92 (_ BitVec 32))
(declare-const symbol_315 (_ BitVec 32))
(declare-const symbol_230 (_ BitVec 32))
(declare-const symbol_65 (_ BitVec 32))
(declare-const symbol_36 (_ BitVec 32))
(declare-const symbol_371 (_ BitVec 32))
(declare-const symbol_248 (_ BitVec 32))
(declare-const symbol_270 (_ BitVec 32))
(declare-const symbol_133 (_ BitVec 32))
(declare-const symbol_61 (_ BitVec 32))
(declare-const symbol_34 (_ BitVec 32))
(declare-const symbol_145 (_ BitVec 32))
(declare-const symbol_38 (_ BitVec 32))
(declare-const symbol_464 (_ BitVec 32))
(declare-const symbol_325 (_ BitVec 32))
(declare-const symbol_280 (_ BitVec 32))
(declare-const symbol_262 (_ BitVec 32))
(declare-const symbol_236 (_ BitVec 32))
(declare-const symbol_105 (_ BitVec 32))
(declare-const symbol_57 (_ BitVec 32))
(declare-const symbol_6 (_ BitVec 32))
(declare-const symbol_127 (_ BitVec 32))
(declare-const symbol_282 (_ BitVec 32))
(declare-const symbol_202 (_ BitVec 32))
(declare-const symbol_94 (_ BitVec 32))
(declare-const symbol_191 (_ BitVec 32))
(declare-const symbol_83 (_ BitVec 32))
(declare-const symbol_450 (_ BitVec 32))
(declare-const symbol_173 (_ BitVec 32))
(declare-const symbol_97 (_ BitVec 32))
(declare-const symbol_258 (_ BitVec 32))
(declare-const symbol_359 (_ BitVec 32))
(declare-const symbol_18 (_ BitVec 32))
(declare-const symbol_147 (_ BitVec 32))
(declare-const symbol_266 (_ BitVec 32))
(declare-const symbol_430 (_ BitVec 32))
(declare-const symbol_363 (_ BitVec 32))
(declare-const symbol_211 (_ BitVec 32))
(declare-const symbol_313 (_ BitVec 32))
(declare-const symbol_246 (_ BitVec 32))
(declare-const symbol_169 (_ BitVec 32))
(declare-const symbol_111 (_ BitVec 32))
(declare-const symbol_397 (_ BitVec 32))
(declare-const symbol_307 (_ BitVec 32))
(declare-const symbol_174 (_ BitVec 32))
(declare-const symbol_99 (_ BitVec 32))
(declare-const symbol_495 (_ BitVec 32))
(declare-const symbol_412 (_ BitVec 32))
(declare-const symbol_107 (_ BitVec 32))
(declare-const symbol_51 (_ BitVec 32))
(declare-const symbol_142 (_ BitVec 32))
(declare-const symbol_89 (_ BitVec 32))
(declare-const symbol_292 (_ BitVec 32))
(declare-const symbol_286 (_ BitVec 32))
(declare-const symbol_256 (_ BitVec 32))
(declare-const symbol_124 (_ BitVec 32))
(declare-const symbol_389 (_ BitVec 32))
(declare-const symbol_217 (_ BitVec 32))
(declare-const symbol_206 (_ BitVec 32))
(declare-const symbol_121 (_ BitVec 32))
(declare-const symbol_13 (_ BitVec 32))
(declare-const symbol_53 (_ BitVec 32))
(declare-const symbol_276 (_ BitVec 32))
(declare-const symbol_59 (_ BitVec 32))
(declare-const symbol_165 (_ BitVec 32))
(declare-const symbol_391 (_ BitVec 32))
(declare-const symbol_268 (_ BitVec 32))
(declare-const symbol_442 (_ BitVec 32))
(declare-const symbol_138 (_ BitVec 32))
(declare-const symbol_8 (_ BitVec 32))
(declare-const symbol_332 (_ BitVec 32))
(declare-const symbol_195 (_ BitVec 32))
(declare-const symbol_129 (_ BitVec 32))
(declare-const symbol_81 (_ BitVec 32))
(declare-const symbol_87 (_ BitVec 32))
(declare-const symbol_213 (_ BitVec 32))
(assert (not (= symbol_495 (_ bv13 32))))
(assert (not (not (= symbol_495 (_ bv4 32)))))
(assert (not (not (= symbol_493 (_ bv4 32)))))
(assert (not (not (= symbol_491 (_ bv4 32)))))
(assert (not (not (= symbol_489 (_ bv4 32)))))
(assert (not (not (= symbol_487 (_ bv4 32)))))
(assert (not (not (= symbol_485 (_ bv4 32)))))
(assert (not (not (= symbol_484 (_ bv4 32)))))
(assert (not (not (= symbol_482 (_ bv4 32)))))
(assert (not (not (= symbol_480 (_ bv4 32)))))
(assert (not (not (= symbol_478 (_ bv4 32)))))
(assert (not (not (= symbol_476 (_ bv4 32)))))
(assert (not (not (= symbol_474 (_ bv4 32)))))
(assert (not (not (= symbol_472 (_ bv4 32)))))
(assert (not (not (= symbol_470 (_ bv4 32)))))
(assert (not (not (= symbol_468 (_ bv4 32)))))
(assert (not (not (= symbol_466 (_ bv4 32)))))
(assert (not (not (= symbol_464 (_ bv4 32)))))
(assert (not (not (= symbol_462 (_ bv4 32)))))
(assert (not (not (= symbol_460 (_ bv4 32)))))
(assert (not (not (= symbol_458 (_ bv4 32)))))
(assert (not (not (= symbol_456 (_ bv4 32)))))
(assert (not (not (= symbol_454 (_ bv4 32)))))
(assert (not (not (= symbol_452 (_ bv4 32)))))
(assert (not (not (= symbol_450 (_ bv4 32)))))
(assert (not (not (= symbol_448 (_ bv4 32)))))
(assert (not (not (= symbol_446 (_ bv4 32)))))
(assert (not (not (= symbol_444 (_ bv4 32)))))
(assert (not (not (= symbol_442 (_ bv4 32)))))
(assert (not (not (= symbol_440 (_ bv4 32)))))
(assert (not (not (= symbol_438 (_ bv4 32)))))
(assert (not (not (= symbol_436 (_ bv4 32)))))
(assert (not (not (= symbol_434 (_ bv4 32)))))
(assert (not (not (= symbol_432 (_ bv4 32)))))
(assert (not (not (= symbol_430 (_ bv4 32)))))
(assert (not (not (= symbol_428 (_ bv4 32)))))
(assert (not (not (= symbol_426 (_ bv4 32)))))
(assert (not (not (= symbol_424 (_ bv4 32)))))
(assert (not (not (= symbol_422 (_ bv4 32)))))
(assert (not (not (= symbol_420 (_ bv4 32)))))
(assert (not (not (= symbol_418 (_ bv4 32)))))
(assert (not (not (= symbol_416 (_ bv4 32)))))
(assert (not (not (= symbol_414 (_ bv4 32)))))
(assert (not (not (= symbol_412 (_ bv4 32)))))
(assert (not (not (= symbol_410 (_ bv4 32)))))
(assert (not (not (= symbol_408 (_ bv4 32)))))
(assert (not (not (= symbol_406 (_ bv4 32)))))
(assert (not (not (= symbol_403 (_ bv4 32)))))
(assert (not (not (= symbol_401 (_ bv4 32)))))
(assert (not (not (= symbol_399 (_ bv4 32)))))
(assert (not (not (= symbol_397 (_ bv4 32)))))
(assert (not (not (= symbol_395 (_ bv4 32)))))
(assert (not (not (= symbol_393 (_ bv4 32)))))
(assert (not (not (= symbol_391 (_ bv4 32)))))
(assert (not (not (= symbol_389 (_ bv4 32)))))
(assert (not (not (= symbol_387 (_ bv4 32)))))
(assert (not (not (= symbol_385 (_ bv4 32)))))
(assert (not (not (= symbol_383 (_ bv4 32)))))
(assert (not (not (= symbol_381 (_ bv4 32)))))
(assert (not (not (= symbol_379 (_ bv4 32)))))
(assert (not (not (= symbol_377 (_ bv4 32)))))
(assert (not (not (= symbol_375 (_ bv4 32)))))
(assert (not (not (= symbol_373 (_ bv4 32)))))
(assert (not (not (= symbol_371 (_ bv4 32)))))
(assert (not (not (= symbol_369 (_ bv4 32)))))
(assert (not (not (= symbol_367 (_ bv4 32)))))
(assert (not (not (= symbol_365 (_ bv4 32)))))
(assert (not (not (= symbol_363 (_ bv4 32)))))
(assert (not (not (= symbol_361 (_ bv4 32)))))
(assert (not (not (= symbol_359 (_ bv4 32)))))
(assert (not (not (= symbol_358 (_ bv4 32)))))
(assert (not (not (= symbol_356 (_ bv4 32)))))
(assert (not (not (= symbol_354 (_ bv4 32)))))
(assert (not (not (= symbol_352 (_ bv4 32)))))
(assert (not (not (= symbol_350 (_ bv4 32)))))
(assert (not (not (= symbol_348 (_ bv4 32)))))
(assert (not (not (= symbol_346 (_ bv4 32)))))
(assert (not (not (= symbol_344 (_ bv4 32)))))
(assert (not (not (= symbol_342 (_ bv4 32)))))
(assert (not (not (= symbol_340 (_ bv4 32)))))
(assert (not (not (= symbol_338 (_ bv4 32)))))
(assert (not (not (= symbol_336 (_ bv4 32)))))
(assert (not (not (= symbol_334 (_ bv4 32)))))
(assert (not (not (= symbol_332 (_ bv4 32)))))
(assert (not (not (= symbol_331 (_ bv4 32)))))
(assert (not (not (= symbol_329 (_ bv4 32)))))
(assert (not (not (= symbol_327 (_ bv4 32)))))
(assert (not (not (= symbol_325 (_ bv4 32)))))
(assert (not (not (= symbol_323 (_ bv4 32)))))
(assert (not (not (= symbol_321 (_ bv4 32)))))
(assert (not (not (= symbol_319 (_ bv4 32)))))
(assert (not (not (= symbol_317 (_ bv4 32)))))
(assert (not (not (= symbol_315 (_ bv4 32)))))
(assert (not (not (= symbol_313 (_ bv4 32)))))
(assert (not (not (= symbol_311 (_ bv4 32)))))
(assert (not (not (= symbol_309 (_ bv4 32)))))
(assert (not (not (= symbol_307 (_ bv4 32)))))
(assert (not (not (= symbol_304 (_ bv4 32)))))
(assert (not (not (= symbol_302 (_ bv4 32)))))
(assert (not (not (= symbol_300 (_ bv4 32)))))
(assert (not (not (= symbol_298 (_ bv4 32)))))
(assert (not (not (= symbol_296 (_ bv4 32)))))
(assert (not (not (= symbol_294 (_ bv4 32)))))
(assert (not (not (= symbol_292 (_ bv4 32)))))
(assert (not (not (= symbol_290 (_ bv4 32)))))
(assert (not (not (= symbol_289 (_ bv4 32)))))
(assert (not (not (= symbol_286 (_ bv4 32)))))
(assert (not (not (= symbol_284 (_ bv4 32)))))
(assert (not (not (= symbol_282 (_ bv4 32)))))
(assert (not (not (= symbol_280 (_ bv4 32)))))
(assert (not (not (= symbol_278 (_ bv4 32)))))
(assert (not (not (= symbol_276 (_ bv4 32)))))
(assert (not (not (= symbol_274 (_ bv4 32)))))
(assert (not (not (= symbol_272 (_ bv4 32)))))
(assert (not (not (= symbol_270 (_ bv4 32)))))
(assert (not (not (= symbol_268 (_ bv4 32)))))
(assert (not (not (= symbol_266 (_ bv4 32)))))
(assert (not (not (= symbol_264 (_ bv4 32)))))
(assert (not (not (= symbol_262 (_ bv4 32)))))
(assert (not (not (= symbol_260 (_ bv4 32)))))
(assert (not (not (= symbol_258 (_ bv4 32)))))
(assert (not (not (= symbol_256 (_ bv4 32)))))
(assert (not (not (= symbol_254 (_ bv4 32)))))
(assert (not (not (= symbol_252 (_ bv4 32)))))
(assert (not (not (= symbol_250 (_ bv4 32)))))
(assert (not (not (= symbol_248 (_ bv4 32)))))
(assert (not (not (= symbol_246 (_ bv4 32)))))
(assert (not (not (= symbol_244 (_ bv4 32)))))
(assert (not (not (= symbol_242 (_ bv4 32)))))
(assert (not (not (= symbol_240 (_ bv4 32)))))
(assert (not (not (= symbol_238 (_ bv4 32)))))
(assert (not (not (= symbol_236 (_ bv4 32)))))
(assert (not (not (= symbol_234 (_ bv4 32)))))
(assert (not (not (= symbol_232 (_ bv4 32)))))
(assert (not (not (= symbol_230 (_ bv4 32)))))
(assert (not (not (= symbol_228 (_ bv4 32)))))
(assert (not (not (= symbol_226 (_ bv4 32)))))
(assert (not (not (= symbol_224 (_ bv4 32)))))
(assert (not (not (= symbol_222 (_ bv4 32)))))
(assert (not (not (= symbol_220 (_ bv4 32)))))
(assert (not (not (= symbol_219 (_ bv4 32)))))
(assert (not (not (= symbol_217 (_ bv4 32)))))
(assert (not (not (= symbol_215 (_ bv4 32)))))
(assert (not (not (= symbol_213 (_ bv4 32)))))
(assert (not (not (= symbol_211 (_ bv4 32)))))
(assert (not (not (= symbol_210 (_ bv4 32)))))
(assert (not (not (= symbol_208 (_ bv4 32)))))
(assert (not (not (= symbol_206 (_ bv4 32)))))
(assert (not (not (= symbol_204 (_ bv4 32)))))
(assert (not (not (= symbol_202 (_ bv4 32)))))
(assert (not (not (= symbol_200 (_ bv4 32)))))
(assert (not (not (= symbol_198 (_ bv4 32)))))
(assert (not (not (= symbol_195 (_ bv4 32)))))
(assert (not (not (= symbol_193 (_ bv4 32)))))
(assert (not (not (= symbol_191 (_ bv4 32)))))
(assert (not (not (= symbol_189 (_ bv4 32)))))
(assert (not (not (= symbol_187 (_ bv4 32)))))
(assert (not (not (= symbol_185 (_ bv4 32)))))
(assert (not (not (= symbol_184 (_ bv4 32)))))
(assert (not (not (= symbol_182 (_ bv4 32)))))
(assert (not (not (= symbol_180 (_ bv4 32)))))
(assert (not (not (= symbol_178 (_ bv4 32)))))
(assert (not (not (= symbol_176 (_ bv4 32)))))
(assert (not (not (= symbol_174 (_ bv4 32)))))
(assert (not (not (= symbol_173 (_ bv4 32)))))
(assert (not (not (= symbol_171 (_ bv4 32)))))
(assert (not (not (= symbol_169 (_ bv4 32)))))
(assert (not (not (= symbol_167 (_ bv4 32)))))
(assert (not (not (= symbol_165 (_ bv4 32)))))
(assert (not (not (= symbol_162 (_ bv4 32)))))
(assert (not (not (= symbol_160 (_ bv4 32)))))
(assert (not (not (= symbol_158 (_ bv4 32)))))
(assert (not (not (= symbol_156 (_ bv4 32)))))
(assert (not (not (= symbol_154 (_ bv4 32)))))
(assert (not (not (= symbol_152 (_ bv4 32)))))
(assert (not (not (= symbol_150 (_ bv4 32)))))
(assert (not (not (= symbol_147 (_ bv4 32)))))
(assert (not (not (= symbol_145 (_ bv4 32)))))
(assert (not (not (= symbol_144 (_ bv4 32)))))
(assert (not (not (= symbol_142 (_ bv4 32)))))
(assert (not (not (= symbol_140 (_ bv4 32)))))
(assert (not (not (= symbol_138 (_ bv4 32)))))
(assert (not (not (= symbol_135 (_ bv4 32)))))
(assert (not (not (= symbol_133 (_ bv4 32)))))
(assert (not (not (= symbol_131 (_ bv4 32)))))
(assert (not (not (= symbol_129 (_ bv4 32)))))
(assert (not (not (= symbol_127 (_ bv4 32)))))
(assert (not (not (= symbol_125 (_ bv4 32)))))
(assert (not (not (= symbol_124 (_ bv4 32)))))
(assert (not (not (= symbol_121 (_ bv4 32)))))
(assert (not (not (= symbol_119 (_ bv4 32)))))
(assert (not (not (= symbol_117 (_ bv4 32)))))
(assert (not (not (= symbol_115 (_ bv4 32)))))
(assert (not (not (= symbol_113 (_ bv4 32)))))
(assert (not (not (= symbol_111 (_ bv4 32)))))
(assert (not (not (= symbol_109 (_ bv4 32)))))
(assert (not (not (= symbol_107 (_ bv4 32)))))
(assert (not (not (= symbol_105 (_ bv4 32)))))
(assert (not (not (= symbol_103 (_ bv4 32)))))
(assert (not (not (= symbol_101 (_ bv4 32)))))
(assert (not (not (= symbol_99 (_ bv4 32)))))
(assert (not (not (= symbol_97 (_ bv4 32)))))
(assert (not (not (= symbol_94 (_ bv4 32)))))
(assert (not (not (= symbol_92 (_ bv4 32)))))
(assert (not (not (= symbol_90 (_ bv4 32)))))
(assert (not (not (= symbol_89 (_ bv4 32)))))
(assert (not (not (= symbol_87 (_ bv4 32)))))
(assert (not (not (= symbol_85 (_ bv4 32)))))
(assert (not (not (= symbol_83 (_ bv4 32)))))
(assert (not (not (= symbol_81 (_ bv4 32)))))
(assert (not (not (= symbol_79 (_ bv4 32)))))
(assert (not (not (= symbol_77 (_ bv4 32)))))
(assert (not (not (= symbol_75 (_ bv4 32)))))
(assert (not (not (= symbol_73 (_ bv4 32)))))
(assert (not (not (= symbol_71 (_ bv4 32)))))
(assert (not (not (= symbol_70 (_ bv4 32)))))
(assert (not (not (= symbol_68 (_ bv4 32)))))
(assert (not (not (= symbol_65 (_ bv4 32)))))
(assert (not (not (= symbol_63 (_ bv4 32)))))
(assert (not (not (= symbol_61 (_ bv4 32)))))
(assert (not (not (= symbol_59 (_ bv4 32)))))
(assert (not (not (= symbol_57 (_ bv4 32)))))
(assert (not (not (= symbol_55 (_ bv4 32)))))
(assert (not (not (= symbol_53 (_ bv4 32)))))
(assert (not (not (= symbol_51 (_ bv4 32)))))
(assert (not (not (= symbol_49 (_ bv4 32)))))
(assert (not (not (= symbol_47 (_ bv4 32)))))
(assert (not (not (= symbol_45 (_ bv4 32)))))
(assert (not (not (= symbol_43 (_ bv4 32)))))
(assert (not (not (= symbol_40 (_ bv4 32)))))
(assert (not (not (= symbol_38 (_ bv4 32)))))
(assert (not (not (= symbol_36 (_ bv4 32)))))
(assert (not (not (= symbol_34 (_ bv4 32)))))
(assert (not (not (= symbol_32 (_ bv4 32)))))
(assert (not (not (= symbol_30 (_ bv4 32)))))
(assert (not (not (= symbol_28 (_ bv4 32)))))
(assert (not (not (= symbol_27 (_ bv4 32)))))
(assert (not (not (= symbol_25 (_ bv4 32)))))
(assert (not (not (= symbol_23 (_ bv4 32)))))
(assert (not (not (= symbol_21 (_ bv4 32)))))
(assert (not (not (= symbol_19 (_ bv4 32)))))
(assert (not (not (= symbol_18 (_ bv4 32)))))
(assert (not (not (= symbol_15 (_ bv4 32)))))
(assert (not (not (= symbol_13 (_ bv4 32)))))
(assert (not (not (= symbol_11 (_ bv4 32)))))
(assert (not (not (= symbol_8 (_ bv4 32)))))
(assert (not (not (= symbol_6 (_ bv4 32)))))
(assert (not (not (= symbol_4 (_ bv4 32)))))
(assert (not (not (= symbol_2 (_ bv4 32)))))
(assert (not (not (= symbol_0 (_ bv6 32)))))
(assert (not (= symbol_0 (_ bv4 32))))
(check-sat)